7
0, 494, 581, 333, 320, 586, 279
494, 0, 749, 529, 764, 398, 772
581, 749, 0, 907, 452, 453, 678
333, 529, 907, 0, 623, 802, 462
320, 764, 452, 623, 0, 698, 242
586, 398, 453, 802, 698, 0, 827
279, 772, 678, 462, 242, 827, 0
